1 -1 -2 0
1 -1 3 0
1 1 4 0
1 1 -5 0
1 2 6 0
1 -2 4 0
1 -2 -1 0
1 2 7 0
1 -8 -9 0
1 -8 10 0
1 8 -11 0
1 -8 -3 0
1 8 -4 0
1 -8 -12 0
1 -8 13 0
1 8 14 0
1 8 -7 0
1 8 5 0
1 11 9 0
1 -11 10 0
1 -11 3 0
1 -11 4 0
1 -11 -12 0
1 11 -13 0
1 11 -8 0
1 -11 5 0
1 -4 -15 0
1 -4 -16 0
1 4 11 0
1 4 2 0
1 -4 17 0
1 -4 18 0
1 4 -19 0
1 4 -20 0
1 4 1 0
1 4 -5 0
1 -5 15 0
1 -5 -21 0
1 -5 -16 0
1 5 -11 0
1 -5 -18 0
1 5 19 0
1 5 20 0
1 5 -8 0
1 5 -1 0
1 3 22 0
1 -3 -23 0
1 3 -11 0
1 -3 -24 0
1 3 18 0
1 3 25 0
1 3 -26 0
1 -3 -1 0
1 7 -15 0
1 7 -11 0
1 7 -2 0
1 7 3 0
1 7 18 0
1 7 25 0
1 -7 8 0
1 -7 27 0
1 -20 9 0
1 20 10 0
1 20 -16 0
1 20 -13 0
1 -20 26 0
1 20 5 0
1 -16 -9 0
1 16 10 0
1 -16 -23 0
1 16 4 0
1 16 12 0
1 16 -20 0
1 19 -9 0
1 -19 -10 0
1 -19 -21 0
1 19 -13 0
1 -19 -28 0
1 19 -25 0
1 -19 -5 0
1 21 -29 0
1 21 -22 0
1 -21 30 0
1 -21 -4 0
1 -21 -12 0
1 -21 -13 0
1 21 -19 0
1 -21 -31 0
1 13 -32 0
1 13 33 0
1 -13 -21 0
1 -13 16 0
1 -13 -11 0
1 -13 -34 0
1 13 35 0
1 -13 -36 0
1 -13 19 0
1 13 20 0
1 13 8 0
1 13 -37 0
1 10 32 0
1 10 38 0
1 10 -21 0
1 -10 16 0
1 10 34 0
1 10 -39 0
1 -10 -35 0
1 -10 -13 0
1 10 -20 0
1 -10 -8 0
1 10 37 0
1 -12 40 0
1 -12 -15 0
1 -12 21 0
1 -12 -11 0
1 12 34 0
1 -12 41 0
1 12 42 0
1 12 -19 0
1 -12 20 0
1 -12 37 0
1 -9 -40 0
1 -9 -43 0
1 -9 -15 0
1 -9 21 0
1 9 16 0
1 9 11 0
1 9 -34 0
1 9 41 0
1 9 18 0
1 -9 19 0
1 9 20 0
1 9 -37 0
1 35 -33 0
1 -35 10 0
1 -35 29 0
1 35 -30 0
1 35 -13 0
1 -35 -18 0
1 -35 -31 0
1 -33 -15 0
1 33 29 0
1 -33 35 0
1 -33 -13 0
1 -33 -28 0
1 33 31 0
1 39 -10 0
1 39 29 0
1 39 30 0
1 -39 41 0
1 -39 13 0
1 39 28 0
1 39 -31 0
1 -32 40 0
1 32 10 0
1 -32 30 0
1 32 -39 0
1 32 -28 0
1 -32 31 0
1 31 -21 0
1 -31 -30 0
1 31 44 0
1 -31 -35 0
1 -31 19 0
1 31 -45 0
1 -31 46 0
1 -30 32 0
1 -30 -21 0
1 -30 -44 0
1 -30 39 0
1 30 35 0
1 30 -19 0
1 -30 -31 0
1 30 -46 0
1 -28 -32 0
1 28 -33 0
1 -28 -21 0
1 28 47 0
1 -28 -34 0
1 28 35 0
1 28 -19 0
1 28 -48 0
1 28 -46 0
1 -29 -32 0
1 29 -33 0
1 29 -49 0
1 -29 44 0
1 -29 47 0
1 -29 34 0
1 29 39 0
1 29 28 0
1 -29 -46 0
1 -29 50 0
1 -29 37 0
1 -51 -52 0
1 51 53 0
1 -51 6 0
1 51 -54 0
1 -51 -55 0
1 -51 -1 0
1 -6 52 0
1 6 53 0
1 6 -2 0
1 6 54 0
1 -6 51 0
1 14 52 0
1 14 -53 0
1 14 -56 0
1 14 57 0
1 -14 54 0
1 57 -53 0
1 -57 56 0
1 57 -58 0
1 -57 -11 0
1 -57 54 0
1 -57 -55 0
1 -57 -59 0
1 57 -60 0
1 -57 14 0
1 53 -22 0
1 -53 -61 0
1 53 -57 0
1 -53 6 0
1 -53 55 0
1 53 -25 0
1 53 -26 0
1 -53 -14 0
1 55 -22 0
1 -55 -57 0
1 55 62 0
1 -55 -51 0
1 52 57 0
1 -52 54 0
1 52 -14 0
1 52 -51 0
1 54 52 0
1 54 6 0
1 -54 63 0
1 54 14 0
1 -54 -51 0
1 26 -53 0
1 -26 56 0
1 26 -58 0
1 -26 55 0
1 -26 59 0
1 -26 -60 0
1 26 20 0
1 -23 16 0
1 -23 -58 0
1 23 -3 0
1 23 -59 0
1 23 26 0
1 23 -7 0
1 -25 53 0
1 -25 -22 0
1 -25 56 0
1 -25 58 0
1 25 -3 0
1 25 -59 0
1 -25 -19 0
1 -25 60 0
1 -25 64 0
1 25 -65 0
1 -25 7 0
1 -22 56 0
1 -22 58 0
1 -22 66 0
1 -22 59 0
1 22 -64 0
1 -22 -65 0
1 58 -67 0
1 -58 40 0
1 58 -15 0
1 -58 -22 0
1 58 -23 0
1 -58 -68 0
1 -58 -57 0
1 -58 69 0
1 -58 41 0
1 58 -18 0
1 -58 26 0
1 -58 14 0
1 60 -67 0
1 60 -15 0
1 60 -22 0
1 -60 -23 0
1 60 57 0
1 60 -69 0
1 60 25 0
1 60 70 0
1 -60 26 0
1 60 14 0
1 -56 67 0
1 -56 -22 0
1 56 -71 0
1 -56 -23 0
1 56 57 0
1 56 69 0
1 56 -26 0
1 -56 14 0
1 59 -56 0
1 -59 -23 0
1 59 57 0
1 59 -69 0
1 59 25 0
1 -59 72 0
1 -59 -14 0
1 -18 9 0
1 -18 -66 0
1 -18 73 0
1 18 3 0
1 18 4 0
1 -18 12 0
1 18 35 0
1 -18 64 0
1 18 65 0
1 18 -5 0
1 15 -9 0
1 -15 -66 0
1 -15 73 0
1 -15 3 0
1 15 4 0
1 -15 18 0
1 -15 64 0
1 -15 -7 0
1 -15 5 0
1 41 -74 0
1 41 17 0
1 41 12 0
1 -41 60 0
1 41 65 0
1 -40 -74 0
1 40 -32 0
1 -40 -9 0
1 -40 -58 0
1 -40 -66 0
1 -40 -73 0
1 -40 24 0
1 -40 -60 0
1 40 64 0
1 -73 -40 0
1 -73 15 0
1 -73 -22 0
1 -73 -75 0
1 -73 -34 0
1 73 -41 0
1 -73 -18 0
1 -73 -25 0
1 73 50 0
1 -73 37 0
1 65 40 0
1 65 -15 0
1 65 -22 0
1 65 -75 0
1 -65 76 0
1 65 -50 0
1 65 -37 0
1 66 67 0
1 66 -40 0
1 66 15 0
1 -66 22 0
1 66 77 0
1 66 75 0
1 -66 78 0
1 66 69 0
1 -66 25 0
1 66 64 0
1 -66 -76 0
1 66 -79 0
1 -64 67 0
1 -64 -40 0
1 -64 -15 0
1 64 -22 0
1 -64 66 0
1 -64 -75 0
1 -64 78 0
1 -64 69 0
1 -64 41 0
1 64 -18 0
1 -64 25 0
1 64 80 0
1 -64 -76 0
1 -64 79 0
1 -34 10 0
1 -34 -73 0
1 34 69 0
1 34 -12 0
1 -34 -17 0
1 -34 13 0
1 -34 -28 0
1 -34 65 0
1 34 -27 0
1 34 -37 0
1 37 -67 0
1 -37 9 0
1 -37 74 0
1 -37 10 0
1 37 -29 0
1 37 -17 0
1 -37 13 0
1 -37 -65 0
1 37 -27 0
1 47 -74 0
1 47 -43 0
1 47 -29 0
1 -47 -73 0
1 -47 -17 0
1 -47 42 0
1 47 -36 0
1 -47 65 0
1 47 -50 0
1 -47 -27 0
1 -50 -43 0
1 -50 -29 0
1 -50 73 0
1 -50 -47 0
1 -50 -24 0
1 -50 -17 0
1 50 -42 0
1 -50 -36 0
1 -50 -27 0
1 50 -65 0
1 -50 79 0
1 17 74 0
1 -17 -81 0
1 -17 -82 0
1 -17 -44 0
1 17 -47 0
1 -17 -34 0
1 -17 -4 0
1 -17 83 0
1 -17 46 0
1 -74 40 0
1 -74 81 0
1 -74 -44 0
1 -74 -17 0
1 -74 -41 0
1 74 -83 0
1 -74 84 0
1 -74 -37 0
1 24 -40 0
1 -24 75 0
1 24 47 0
1 -24 3 0
1 -24 34 0
1 -24 83 0
1 24 85 0
1 -24 -50 0
1 -24 -27 0
1 24 -37 0
1 -27 40 0
1 27 81 0
1 -27 -86 0
1 27 24 0
1 -27 -7 0
1 27 -83 0
1 -27 76 0
1 -27 50 0
1 -27 -37 0
1 -44 -74 0
1 44 43 0
1 -44 38 0
1 -44 -30 0
1 -44 -75 0
1 44 -17 0
1 44 -42 0
1 44 -28 0
1 -44 46 0
1 46 74 0
1 46 43 0
1 46 -29 0
1 46 30 0
1 46 -17 0
1 -46 -42 0
1 46 -36 0
1 -46 28 0
1 -46 31 0
1 -82 -74 0
1 82 43 0
1 82 38 0
1 82 -84 0
1 -82 87 0
1 -82 86 0
1 82 -36 0
1 -82 48 0
1 -82 45 0
1 -84 -43 0
1 -84 -38 0
1 84 49 0
1 -84 -87 0
1 84 -17 0
1 84 -42 0
1 84 36 0
1 -84 -48 0
1 84 -45 0
1 -84 85 0
1 -36 -38 0
1 36 -88 0
1 36 89 0
1 36 82 0
1 36 -44 0
1 36 47 0
1 -36 13 0
1 36 -90 0
1 -36 -91 0
1 -36 84 0
1 36 46 0
1 -38 -10 0
1 -38 -88 0
1 -38 -89 0
1 -38 82 0
1 38 44 0
1 38 -47 0
1 -38 90 0
1 -38 91 0
1 38 46 0
1 38 -50 0
1 42 -92 0
1 42 -82 0
1 42 -47 0
1 -42 12 0
1 -42 -93 0
1 42 -83 0
1 42 84 0
1 42 -46 0
1 -43 -9 0
1 43 81 0
1 -43 -82 0
1 -43 44 0
1 43 42 0
1 -43 93 0
1 -43 -83 0
1 43 -84 0
1 -43 -46 0
1 -43 -50 0
1 89 38 0
1 -89 -87 0
1 89 36 0
1 -91 -38 0
1 91 49 0
1 -91 89 0
1 -91 -87 0
1 -91 36 0
1 -91 -83 0
1 -88 38 0
1 -88 -49 0
1 88 -92 0
1 -88 -87 0
1 -88 90 0
1 88 45 0
1 -90 -88 0
1 90 -49 0
1 90 87 0
1 90 -36 0
1 -90 -93 0
1 -90 48 0
1 45 88 0
1 45 89 0
1 -45 87 0
1 -45 -91 0
1 -45 -31 0
1 -45 -84 0
1 87 88 0
1 87 -30 0
1 87 89 0
1 -87 82 0
1 -87 -90 0
1 87 -91 0
1 -87 84 0
1 87 45 0
1 48 -88 0
1 48 -89 0
1 -48 82 0
1 -48 90 0
1 -48 -84 0
1 49 88 0
1 -49 82 0
1 49 -48 0
1 49 90 0
1 49 -91 0
1 -49 -84 0
1 -69 -67 0
1 69 -94 0
1 69 61 0
1 69 -56 0
1 -69 -58 0
1 -69 -34 0
1 69 -63 0
1 69 62 0
1 69 59 0
1 69 -60 0
1 69 -64 0
1 -67 94 0
1 -67 58 0
1 -67 66 0
1 -67 69 0
1 67 63 0
1 67 -60 0
1 -67 -37 0
1 -78 -94 0
1 -78 61 0
1 -78 71 0
1 78 -68 0
1 78 -66 0
1 78 47 0
1 -78 -63 0
1 -78 72 0
1 -78 64 0
1 -78 79 0
1 79 -94 0
1 -79 -61 0
1 79 -68 0
1 79 62 0
1 -79 -72 0
1 79 70 0
1 79 -64 0
1 79 -50 0
1 -61 -67 0
1 61 53 0
1 -61 -86 0
1 61 75 0
1 -61 78 0
1 61 -69 0
1 61 -85 0
1 -61 -76 0
1 -61 79 0
1 -62 67 0
1 -62 61 0
1 -62 86 0
1 62 -78 0
1 62 69 0
1 -62 55 0
1 62 -85 0
1 -62 79 0
1 -94 -67 0
1 -94 52 0
1 94 -78 0
1 94 63 0
1 94 -79 0
1 -63 -69 0
1 63 54 0
1 75 -61 0
1 75 -71 0
1 75 66 0
1 -75 44 0
1 75 -73 0
1 -75 -72 0
1 -75 -64 0
1 -75 -65 0
1 75 -76 0
1 -75 -27 0
1 -76 71 0
1 -76 65 0
1 76 24 0
1 -76 -72 0
1 -76 -70 0
1 76 -64 0
1 76 -27 0
1 -86 61 0
1 -86 80 0
1 -86 71 0
1 -86 68 0
1 -86 82 0
1 -86 77 0
1 86 -95 0
1 86 -24 0
1 86 -62 0
1 86 72 0
1 86 -70 0
1 86 -96 0
1 86 27 0
1 -85 86 0
1 85 -77 0
1 85 95 0
1 -85 62 0
1 85 -70 0
1 -85 -96 0
1 -68 -70 0
1 -68 58 0
1 -68 81 0
1 68 -86 0
1 68 -75 0
1 68 78 0
1 -68 -93 0
1 -68 83 0
1 -68 -76 0
1 70 -81 0
1 -70 -75 0
1 -70 78 0
1 70 -93 0
1 70 -60 0
1 70 85 0
1 -70 -79 0
1 71 -56 0
1 71 -86 0
1 -71 -75 0
1 -71 -78 0
1 -71 72 0
1 -72 75 0
1 -72 59 0
1 -72 79 0
1 -81 74 0
1 -81 -43 0
1 -81 70 0
1 81 89 0
1 -81 68 0
1 -81 77 0
1 -81 -95 0
1 -81 -24 0
1 81 -42 0
1 81 -83 0
1 -81 80 0
1 -81 -96 0
1 -81 27 0
1 -83 43 0
1 83 68 0
1 -83 77 0
1 -83 -24 0
1 -83 -17 0
1 83 42 0
1 -83 91 0
1 -83 27 0
1 92 43 0
1 92 -68 0
1 -92 77 0
1 92 -42 0
1 92 -70 0
1 93 -43 0
1 -93 92 0
1 93 95 0
1 -93 42 0
1 93 -90 0
1 -93 -80 0
1 -95 -92 0
1 95 86 0
1 95 -73 0
1 95 83 0
1 -95 -85 0
1 96 92 0
1 96 81 0
1 -96 -86 0
1 -96 95 0
1 96 93 0
1 96 -83 0
1 77 -92 0
1 -77 -81 0
1 77 -66 0
1 77 -86 0
1 -77 93 0
1 80 92 0
1 -80 86 0
1 80 77 0
1 -80 -93 0
1 80 85 0
